2025-04-29 19:36:45,899 - INFO - --- optimisation run for MISO ---
2025-04-29 19:36:45,901 - INFO - Loaded required df_price_hourly (8760 rows) from Price_hourly.csv
2025-04-29 19:36:45,907 - INFO - Loaded required df_ANSprice_hourly (8760 rows) from Price_ANS_hourly.csv
2025-04-29 19:36:45,908 - INFO - Loaded required df_system (45 rows) from sys_data_advanced.csv
2025-04-29 19:36:45,913 - INFO - Loaded optional df_ANSmile_hourly (8760 rows) from MileageMultiplier_hourly.csv
2025-04-29 19:36:45,916 - INFO - Loaded optional df_ANSdeploy_hourly (8760 rows) from DeploymentFactor_hourly.csv
2025-04-29 19:36:45,916 - INFO - Creating STANDARDIZED model for MISO...
2025-04-29 19:36:45,916 - INFO - Loading parameters...
2025-04-29 19:36:45,919 - WARNING - Implicitly replacing the Component attribute pTurbine_min (type=<class 'pyomo.core.base.param.ScalarParam'>) on block Optimize_Profit_Standardized_MISO with a new Component (type=<class 'pyomo.core.base.param.ScalarParam'>).
This is usually indicative of a modelling error.
To avoid this warning, use block.del_component() and block.add_component().
2025-04-29 19:36:45,920 - WARNING - Implicitly replacing the Component attribute pTurbine_max (type=<class 'pyomo.core.base.param.ScalarParam'>) on block Optimize_Profit_Standardized_MISO with a new Component (type=<class 'pyomo.core.base.param.ScalarParam'>).
This is usually indicative of a modelling error.
To avoid this warning, use block.del_component() and block.add_component().
2025-04-29 19:36:45,920 - INFO - Enabled non-linear turbine efficiency.
2025-04-29 19:36:45,920 - INFO - Loaded electrolyzer piecewise parameters (ke, kt).
2025-04-29 19:36:45,974 - INFO - Loading AS parameters for MISO...
2025-04-29 19:36:46,706 - INFO - Defining variables...
2025-04-29 19:36:46,951 - INFO - Defining constraints...
2025-04-29 19:36:47,593 - WARNING - Using PLACEHOLDER linear efficiency for H2 production constraint.
2025-04-29 19:36:47,596 - WARNING - Using PLACEHOLDER linear efficiency for steam consumption constraint.
2025-04-29 19:36:47,596 - INFO - Building piece‑wise constraints for TurbinePower using SOS2
2025-04-29 19:36:47,638 - WARNING - DEPRECATED: The 'ordered' attribute is no longer supported.  Use
isordered()  (deprecated in 5.7)
(called from /home/honglin/NPPH2/src/constraints.py:22)
2025-04-29 19:36:49,638 - INFO - Defining objective function (Maximize Profit)...
2025-04-29 19:36:50,177 - INFO - Standardized model created successfully.
2025-04-29 19:36:50,188 - INFO - Set parameter Username
2025-04-29 19:36:50,193 - INFO - Academic license - for non-commercial use only - expires 2026-04-25
2025-04-29 19:36:55,888 - INFO - Read LP format model from file /tmp/tmp7hj7kqv8.pyomo.lp
2025-04-29 19:36:55,888 - INFO - Reading time = 0.52 seconds
2025-04-29 19:36:55,888 - INFO - x1: 297834 rows, 297840 columns, 744579 nonzeros
2025-04-29 19:36:55,889 - INFO - Gurobi Optimizer version 12.0.1 build v12.0.1rc0 (linux64 - "Ubuntu 22.04.5 LTS")
2025-04-29 19:36:55,889 - INFO - 
2025-04-29 19:36:55,889 - INFO - CPU model: AMD Ryzen Threadripper PRO 5995WX 64-Cores, instruction set [SSE2|AVX|AVX2]
2025-04-29 19:36:55,889 - INFO - Thread count: 64 physical cores, 128 logical processors, using up to 32 threads
2025-04-29 19:36:55,889 - INFO - 
2025-04-29 19:36:55,889 - INFO - Optimize a model with 297834 rows, 297840 columns and 744579 nonzeros
2025-04-29 19:36:55,899 - INFO - Model fingerprint: 0x482733b9
2025-04-29 19:36:55,899 - INFO - Model has 26280 quadratic constraints
2025-04-29 19:36:55,899 - INFO - Model has 8760 SOS constraints
2025-04-29 19:36:55,899 - INFO - Variable types: 271560 continuous, 26280 integer (26280 binary)
2025-04-29 19:36:55,901 - INFO - Coefficient statistics:
2025-04-29 19:36:55,901 - INFO -   Matrix range     [1e+00, 1e+03]
2025-04-29 19:36:55,901 - INFO -   QMatrix range    [2e-07, 1e+00]
2025-04-29 19:36:55,901 - INFO -   QLMatrix range   [5e-02, 1e+00]
2025-04-29 19:36:55,901 - INFO -   Objective range  [2e-02, 6e+05]
2025-04-29 19:36:55,901 - INFO -   Bounds range     [1e+00, 2e+04]
2025-04-29 19:36:55,901 - INFO -   RHS range        [1e+00, 2e+04]
2025-04-29 19:36:57,158 - INFO - Presolve removed 210255 rows and 227786 columns
2025-04-29 19:36:57,158 - INFO - Presolve time: 1.25s
2025-04-29 19:36:57,161 - INFO - Presolved: 148859 rows, 87564 columns, 402789 nonzeros
2025-04-29 19:36:57,336 - INFO - Variable types: 70045 continuous, 17519 integer (17519 binary)
2025-04-29 19:36:58,607 - INFO - 
2025-04-29 19:36:58,608 - INFO - Deterministic concurrent LP optimizer: primal and dual simplex (primal and dual model)
2025-04-29 19:36:58,608 - INFO - Showing primal log only...
2025-04-29 19:36:58,608 - INFO - 
2025-04-29 19:36:58,869 - INFO - Root relaxation presolved: 113857 rows, 70063 columns, 332782 nonzeros
2025-04-29 19:36:58,869 - INFO - 
2025-04-29 19:36:59,778 - INFO - Concurrent spin time: 0.79s (can be avoided by choosing Method=3)
2025-04-29 19:36:59,778 - INFO - 
2025-04-29 19:36:59,778 - INFO - Solved with primal simplex
2025-04-29 19:36:59,779 - INFO - 
2025-04-29 19:36:59,780 - INFO - Root relaxation: objective 8.348311e+07, 26272 iterations, 1.17 seconds (0.25 work units)
2025-04-29 19:36:59,874 - INFO - 
2025-04-29 19:36:59,874 - INFO -     Nodes    |    Current Node    |     Objective Bounds      |     Work
2025-04-29 19:36:59,874 - INFO -  Expl Unexpl |  Obj  Depth IntInf | Incumbent    BestBd   Gap | It/Node Time
2025-04-29 19:36:59,874 - INFO - 
2025-04-29 19:36:59,874 - INFO - *    0     0               0    8.348311e+07 8.3483e+07  0.00%     -    3s
2025-04-29 19:36:59,964 - INFO - 
2025-04-29 19:36:59,964 - INFO - Explored 1 nodes (26272 simplex iterations) in 4.07 seconds (4.82 work units)
2025-04-29 19:36:59,964 - INFO - Thread count was 32 (of 128 available processors)
2025-04-29 19:36:59,964 - INFO - 
2025-04-29 19:36:59,964 - INFO - Solution count 1: 8.34831e+07 
2025-04-29 19:36:59,964 - INFO - 
2025-04-29 19:36:59,964 - INFO - Optimal solution found (tolerance 1.00e-04)
2025-04-29 19:36:59,967 - INFO - Best objective 8.348310520930e+07, best bound 8.348310520930e+07, gap 0.0000%
2025-04-29 19:37:01,017 - INFO - Extracting comprehensive results for MISO (Actual Power Mode)...
2025-04-29 19:37:01,019 - INFO - Extracting hourly variables...
2025-04-29 19:37:01,147 - INFO - Extracting component AS bids...
2025-04-29 19:37:01,226 - INFO - Extracting total AS bids...
2025-04-29 19:37:01,266 - INFO - Extracting input prices and factors...
2025-04-29 19:37:01,382 - INFO - Calculating deployed AS amounts...
2025-04-29 19:37:01,480 - INFO - Calculating hourly revenues...
2025-04-29 19:37:01,720 - INFO - Calculating hourly costs...
2025-04-29 19:37:01,723 - INFO - Calculating hourly profit...
2025-04-29 19:37:01,723 - INFO - Calculating summary statistics...
2025-04-29 19:37:02,117 - INFO - Comprehensive hourly results saved to ../Results_Standardized/MISO_Hourly_Results_Comprehensive.csv
2025-04-29 19:37:02,117 - INFO - Summary results saved to ../Results_Standardized/MISO_Summary_Results.txt
2025-04-29 19:37:02,247 - INFO - Optimisation finished – Profit = $83483105.21
2025-04-29 19:37:02,247 - INFO - Log saved to ../logs/MISO_optimization_standardized.log
